(set-info :smt-lib-version 2.6)
(set-logic QF_NIA)
(set-info :source |
Generated by: Cristina Borralleras, Daniel Larraz, Albert Oliveras, Enric Rodriguez-Carbonell, Albert Rubio
Generated on: 2017-04-27
Generator: VeryMax
Application: Termination proving
Target solver: barcelogic
|)
(set-info :license "https://creativecommons.org/licenses/by/4.0/")
(set-info :category "industrial")
(set-info :status unsat)
(declare-fun Nl2arg11 () Int)
(declare-fun lam0n1 () Int)
(declare-fun lam0n0 () Int)
(declare-fun Nl2CT1 () Int)
(declare-fun lam1n1 () Int)
(declare-fun lam1n0 () Int)
(declare-fun lam2n0 () Int)
(declare-fun lam2n1 () Int)
(declare-fun lam3n0 () Int)
(declare-fun lam3n1 () Int)
(declare-fun lam4n0 () Int)
(declare-fun lam4n1 () Int)
(declare-fun lam4n2 () Int)
(declare-fun lam4n3 () Int)
(declare-fun undef10 () Int)
(declare-fun undef9 () Int)
(declare-fun arg1 () Int)
(declare-fun lam8n1 () Int)
(declare-fun lam8n0 () Int)
(declare-fun RFN1_CT () Int)
(declare-fun RFN1_arg1 () Int)
(declare-fun lam6n1 () Int)
(declare-fun lam6n0 () Int)
(declare-fun lam7n1 () Int)
(declare-fun lam7n0 () Int)
(declare-fun lam5n1 () Int)
(declare-fun lam5n0 () Int)
(assert ( and ( <= ( - 10 ) Nl2arg11 ) ( <= Nl2arg11 10 ) ))
(assert ( or ( and ( >= lam0n1 0 ) ( > ( + ( * ( - 10 ) lam0n0 ) ( * Nl2CT1 lam0n1 ) ( - 1 ) ) 0 ) ( = ( + ( * 1 lam0n0 ) ( * Nl2arg11 lam0n1 ) ) 0 ) ) ( and ( >= lam1n1 0 ) ( > ( + ( * ( - 10 ) lam1n0 ) ( * Nl2CT1 lam1n1 ) ( - 1 ( + Nl2CT1 ( * Nl2arg11 10 ) ) ) ) 0 ) ( = ( + ( * 1 lam1n0 ) ( * Nl2arg11 lam1n1 ) ) 0 ) ) ))
(assert ( or ( and ( >= lam2n0 0 ) ( >= lam2n1 0 ) ( > ( + ( * 11 lam2n0 ) ( * Nl2CT1 lam2n1 ) ( - 1 ) ) 0 ) ( = ( + ( * ( - 1 ) lam2n0 ) ( * Nl2arg11 lam2n1 ) ) 0 ) ) ( and ( >= lam3n0 0 ) ( >= lam3n1 0 ) ( > ( + ( * 11 lam3n0 ) ( * Nl2CT1 lam3n1 ) ( - 1 ( + Nl2CT1 ( * Nl2arg11 ( - 1 ) ) ) ) ) 0 ) ( = ( + ( * ( - 1 ) lam3n0 ) ( * Nl2arg11 lam3n1 ) ( - ( + 0 ( * Nl2arg11 1 ) ) ) ) 0 ) ) ))
(assert ( and ( <= ( * ( - 1 ) undef10 ) 0 ) ( <= ( + 1 ( * ( - 1 ) undef9 ) ) 0 ) ( not ( <= ( + ( - 9 ) arg1 ) 0 ) ) ( = ( + arg1 ( * ( - 1 ) undef10 ) ) 0 ) ( <= ( + Nl2CT1 ( * ( + 0 Nl2arg11 ) arg1 ) ) 0 ) ))
(assert ( or ( and ( and ( >= lam8n1 0 ) ( > ( + ( * ( - 10 ) lam8n0 ) ( * Nl2CT1 lam8n1 ) ( - 1 ( - ( + RFN1_CT ( * RFN1_arg1 10 ) ) RFN1_CT ) ) ) 0 ) ( = ( + ( * 1 lam8n0 ) ( * Nl2arg11 lam8n1 ) ( - ( - RFN1_arg1 ) ) ) 0 ) ) ( and ( and ( >= lam6n1 0 ) ( > ( + ( * ( - 10 ) lam6n0 ) ( * Nl2CT1 lam6n1 ) ( - 1 ( - RFN1_CT ) ) ) 0 ) ( = ( + ( * 1 lam6n0 ) ( * Nl2arg11 lam6n1 ) ( - ( - RFN1_arg1 ) ) ) 0 ) ) ( and ( >= lam7n1 0 ) ( > ( + ( * ( - 10 ) lam7n0 ) ( * Nl2CT1 lam7n1 ) ( - 1 ( + ( - ( + RFN1_CT ( * RFN1_arg1 10 ) ) RFN1_CT ) 1 ) ) ) 0 ) ( = ( + ( * 1 lam7n0 ) ( * Nl2arg11 lam7n1 ) ( - ( - RFN1_arg1 ) ) ) 0 ) ) ) ) ( and ( >= lam5n1 0 ) ( > ( + ( * ( - 10 ) lam5n0 ) ( * Nl2CT1 lam5n1 ) ( - 1 ) ) 0 ) ( = ( + ( * 1 lam5n0 ) ( * Nl2arg11 lam5n1 ) ) 0 ) ) ))
(check-sat)
(exit)
